NAME          DCAP_3_4_2_500_SS12
ROWS
 N  OBJ
 L  CON1
 L  CON2
 L  CON3
 L  CON4
 L  CON5
 L  CON6
 L  CON7
 L  CON8
 L  CON9
 L  CON10
 L  CON11
 L  CON12
 E  CON13
 E  CON14
 E  CON15
 E  CON16
 E  CON17
 E  CON18
 E  CON19
 E  CON20
COLUMNS
    x[1,1]    OBJ       6.180167      CON1      1.000000    
    x[1,1]    CON7      -1.000000     CON8      -1.000000   
    x[1,2]    OBJ       5.039546      CON2      1.000000    
    x[1,2]    CON8      -1.000000   
    x[2,1]    OBJ       6.732585      CON3      1.000000    
    x[2,1]    CON9      -1.000000     CON10     -1.000000   
    x[2,2]    OBJ       7.443064      CON4      1.000000    
    x[2,2]    CON10     -1.000000   
    x[3,1]    OBJ       6.563535      CON5      1.000000    
    x[3,1]    CON11     -1.000000     CON12     -1.000000   
    x[3,2]    OBJ       6.054841      CON6      1.000000    
    x[3,2]    CON12     -1.000000   
    MARKER    'MARKER'                'INTORG'
    u[1,1]    OBJ       48.076654     CON1      -1.000000   
    u[1,2]    OBJ       49.466655     CON2      -1.000000   
    u[2,1]    OBJ       49.996186     CON3      -1.000000   
    u[2,2]    OBJ       32.230043     CON4      -1.000000   
    u[3,1]    OBJ       20.066487     CON5      -1.000000   
    u[3,2]    OBJ       27.484319     CON6      -1.000000   
    y[1,1,1]  OBJ       9.753654      CON7      1.303998    
    y[1,1,1]  CON13     1.000000    
    y[1,1,2]  OBJ       7.607504      CON8      0.933706    
    y[1,1,2]  CON14     1.000000    
    y[1,2,1]  OBJ       9.844543      CON7      1.154555    
    y[1,2,1]  CON15     1.000000    
    y[1,2,2]  OBJ       7.412847      CON8      1.278978    
    y[1,2,2]  CON16     1.000000    
    y[1,3,1]  OBJ       8.102985      CON7      0.984056    
    y[1,3,1]  CON17     1.000000    
    y[1,3,2]  OBJ       9.199397      CON8      0.649258    
    y[1,3,2]  CON18     1.000000    
    y[1,4,1]  OBJ       6.088932      CON7      0.678401    
    y[1,4,1]  CON19     1.000000    
    y[1,4,2]  OBJ       8.409939      CON8      0.530890    
    y[1,4,2]  CON20     1.000000    
    y[2,1,1]  OBJ       8.361952      CON9      1.303998    
    y[2,1,1]  CON13     1.000000    
    y[2,1,2]  OBJ       7.247887      CON10     0.933706    
    y[2,1,2]  CON14     1.000000    
    y[2,2,1]  OBJ       6.985736      CON9      1.154555    
    y[2,2,1]  CON15     1.000000    
    y[2,2,2]  OBJ       6.718147      CON10     1.278978    
    y[2,2,2]  CON16     1.000000    
    y[2,3,1]  OBJ       5.207029      CON9      0.984056    
    y[2,3,1]  CON17     1.000000    
    y[2,3,2]  OBJ       6.432766      CON10     0.649258    
    y[2,3,2]  CON18     1.000000    
    y[2,4,1]  OBJ       9.317805      CON9      0.678401    
    y[2,4,1]  CON19     1.000000    
    y[2,4,2]  OBJ       7.503193      CON10     0.530890    
    y[2,4,2]  CON20     1.000000    
    y[3,1,1]  OBJ       5.099465      CON11     1.303998    
    y[3,1,1]  CON13     1.000000    
    y[3,1,2]  OBJ       8.062004      CON12     0.933706    
    y[3,1,2]  CON14     1.000000    
    y[3,2,1]  OBJ       6.887988      CON11     1.154555    
    y[3,2,1]  CON15     1.000000    
    y[3,2,2]  OBJ       8.520867      CON12     1.278978    
    y[3,2,2]  CON16     1.000000    
    y[3,3,1]  OBJ       9.258356      CON11     0.984056    
    y[3,3,1]  CON17     1.000000    
    y[3,3,2]  OBJ       9.060944      CON12     0.649258    
    y[3,3,2]  CON18     1.000000    
    y[3,4,1]  OBJ       5.050826      CON11     0.678401    
    y[3,4,1]  CON19     1.000000    
    y[3,4,2]  OBJ       9.693896      CON12     0.530890    
    y[3,4,2]  CON20     1.000000    
    z[1,1]    OBJ       637.018928    CON13     1.000000    
    z[1,2]    OBJ       940.114956    CON14     1.000000    
    z[2,1]    OBJ       713.972104    CON15     1.000000    
    z[2,2]    OBJ       530.045303    CON16     1.000000    
    z[3,1]    OBJ       859.300616    CON17     1.000000    
    z[3,2]    OBJ       841.147943    CON18     1.000000    
    z[4,1]    OBJ       970.065888    CON19     1.000000    
    z[4,2]    OBJ       560.672852    CON20     1.000000    
    MARKER    'MARKER'                 'INTEND'
RHS
    RHS       CON1      -0.000000     CON2      -0.000000   
    RHS       CON3      -0.000000     CON4      -0.000000   
    RHS       CON5      -0.000000     CON6      -0.000000   
    RHS       CON7      -0.000000     CON8      -0.000000   
    RHS       CON9      -0.000000     CON10     -0.000000   
    RHS       CON11     -0.000000     CON12     -0.000000   
    RHS       CON13     1.000000      CON14     1.000000    
    RHS       CON15     1.000000      CON16     1.000000    
    RHS       CON17     1.000000      CON18     1.000000    
    RHS       CON19     1.000000      CON20     1.000000    
BOUNDS
 BV BOUND     u[1,1]  
 BV BOUND     u[1,2]  
 BV BOUND     u[2,1]  
 BV BOUND     u[2,2]  
 BV BOUND     u[3,1]  
 BV BOUND     u[3,2]  
 BV BOUND     y[1,1,1]
 BV BOUND     y[1,1,2]
 BV BOUND     y[1,2,1]
 BV BOUND     y[1,2,2]
 BV BOUND     y[1,3,1]
 BV BOUND     y[1,3,2]
 BV BOUND     y[1,4,1]
 BV BOUND     y[1,4,2]
 BV BOUND     y[2,1,1]
 BV BOUND     y[2,1,2]
 BV BOUND     y[2,2,1]
 BV BOUND     y[2,2,2]
 BV BOUND     y[2,3,1]
 BV BOUND     y[2,3,2]
 BV BOUND     y[2,4,1]
 BV BOUND     y[2,4,2]
 BV BOUND     y[3,1,1]
 BV BOUND     y[3,1,2]
 BV BOUND     y[3,2,1]
 BV BOUND     y[3,2,2]
 BV BOUND     y[3,3,1]
 BV BOUND     y[3,3,2]
 BV BOUND     y[3,4,1]
 BV BOUND     y[3,4,2]
 BV BOUND     z[1,1]  
 BV BOUND     z[1,2]  
 BV BOUND     z[2,1]  
 BV BOUND     z[2,2]  
 BV BOUND     z[3,1]  
 BV BOUND     z[3,2]  
 BV BOUND     z[4,1]  
 BV BOUND     z[4,2]  
ENDATA
